LibMLKEM/why3-cvc5/mlkem.adb_2022_17_contract_case_1.smt2
;; produced by cvc5.drv ;;
(set-logic ALL)
(set-info :smt-lib-version 2.6)
;;; generated by SMT-LIB2 driver
;;; SMT-LIB2 driver: bit-vectors, common part
;;; SMT-LIB2: integer arithmetic
;; "pow2"
(declare-fun pow2 (Int) Int)

(declare-const two_power_size_minus_one Int)

;; "two_power_size_minus_one_val"
(assert (= two_power_size_minus_one (pow2 (- 8 1))))

;; "min"
(define-fun min ((x Int) (y Int)) Int
  (ite (<= x y) x y))

;; "max"
(define-fun max ((x Int) (y Int)) Int
  (ite (<= x y) y x))

;; "Min_r"
(assert (forall ((x Int) (y Int)) (=> (<= y x) (= (min x y) y))))

;; "Max_l"
(assert (forall ((x Int) (y Int)) (=> (<= y x) (= (max x y) x))))

;; "Min_comm"
(assert (forall ((x Int) (y Int)) (= (min x y) (min y x))))

;; "Max_comm"
(assert (forall ((x Int) (y Int)) (= (max x y) (max y x))))

;; "Min_assoc"
(assert
  (forall ((x Int) (y Int) (z Int)) (= (min (min x y) z) (min x (min y z)))))

;; "Max_assoc"
(assert
  (forall ((x Int) (y Int) (z Int)) (= (max (max x y) z) (max x (max y z)))))

(declare-sort byte 0)

;; "to_rep"
(declare-fun to_rep (byte) (_ BitVec 8))

;; "of_rep"
(declare-fun of_rep ((_ BitVec 8)) byte)

;; "inversion_axiom"
(assert
  (forall ((x byte)) (! (= (of_rep (to_rep x)) x) :pattern ((to_rep x)) )))

;; "range_axiom"
(assert true)

;; "coerce_axiom"
(assert
  (forall ((x (_ BitVec 8)))
    (! (= (to_rep (of_rep x)) x) :pattern ((to_rep (of_rep x))) )))

(declare-sort map1 0)

;; "has_bounds"
(declare-fun has_bounds (map1
  Int
  Int) Bool)

;; "get"
(declare-fun get (map1
  Int) byte)

;; "set"
(declare-fun set (map1
  Int
  byte) map1)

;; "set_eq"
(assert
  (forall ((a map1) (i Int) (v byte))
    (! (= (get (set a i v) i) v) :pattern ((set a i v)) )))

;; "set_neq"
(assert
  (forall ((a map1) (i Int) (v byte))
    (! (forall ((j Int))
         (! (=> (not (= i j)) (= (get (set a i v) j) (get a j))) :pattern (
         (get
           a
           j)) :pattern ((get (set a i v) j)) )) :pattern ((set a i v)) )))

;; "set_has_bounds"
(assert
  (forall ((a map1) (i Int) (f Int) (l Int) (v byte))
    (! (=>
         (and (<= f i) (<= i l))
         (=> (has_bounds a f l) (has_bounds (set a i v) f l))) :pattern (
    (has_bounds
      (set a i v)
      f
      l)) )))

;; "bool_eq"
(define-fun bool_eq ((a map1) (a__first Int) (a__last Int) (b map1) (b__first Int) (b__last Int)) Bool
  (ite (and
         (ite (<= a__first a__last)
           (and
             (<= b__first b__last)
             (= (- a__last a__first) (- b__last b__first)))
           (< b__last b__first))
         (forall ((temp___idx_168 Int))
           (=>
             (and (<= a__first temp___idx_168) (<= temp___idx_168 a__last))
             (= (to_rep (get a temp___idx_168)) (to_rep
                                                  (get
                                                    b
                                                    (+ (- b__first a__first) temp___idx_168)))))))
    true
    false))

;; "bool_eq_rev"
(assert
  (forall ((a map1) (b map1))
    (forall ((a__first Int) (a__last Int) (b__first Int) (b__last Int))
      (=>
        (= (bool_eq b b__first b__last a a__first a__last) true)
        (and
          (ite (<= a__first a__last)
            (and
              (<= b__first b__last)
              (= (- a__last a__first) (- b__last b__first)))
            (< b__last b__first))
          (forall ((temp___idx_168 Int))
            (=>
              (and (<= a__first temp___idx_168) (<= temp___idx_168 a__last))
              (= (to_rep (get a temp___idx_168)) (to_rep
                                                   (get
                                                     b
                                                     (+ (- b__first a__first) temp___idx_168)))))))))))

(declare-const swap Bool)

(declare-const c (_ BitVec 8))

;; Goal "def'vc"
;; File "mlkem.adb", line 2017, characters 0-0
(assert
  (not
  (forall ((k_bar map1) (result__ map1))
    (=>
      (has_bounds k_bar 0 31)
      (=>
        (has_bounds result__ 0 31)
        (=>
          (= (bvmul #xFF ((_ int2bv 8) (ite swap 1 0))) c)
          (forall ((k_bar1 map1) (result__1 map1))
            (=>
              (exists ((i Int))
                (and
                  (= i 0)
                  (ite (= (and (ite (<= 0 i) true false) (ite (<= i 31)
                                                           true
                                                           false)) true)
                    (exists ((o (_ BitVec 8)))
                      (and
                        (= (to_rep (get result__ i)) o)
                        (exists ((o1 (_ BitVec 8)))
                          (and
                            (= (to_rep (get k_bar i)) o1)
                            (exists ((t (_ BitVec 8)))
                              (and
                                (= t (bvand c (bvxor o1 o)))
                                (exists ((o2 (_ BitVec 8)))
                                  (and
                                    (= (to_rep (get k_bar i)) o2)
                                    (exists ((o3 byte))
                                      (and
                                        (= (to_rep o3) (bvxor o2 t))
                                        (exists ((k_bar2 map1))
                                          (and
                                            (= k_bar2 (set k_bar i o3))
                                            (exists ((o4 (_ BitVec 8)))
                                              (and
                                                (= (to_rep (get result__ i)) o4)
                                                (exists ((o5 byte))
                                                  (and
                                                    (= (to_rep o5) (bvxor o4 t))
                                                    (exists ((result__2 map1))
                                                      (and
                                                        (= result__2 
                                                        (set
                                                          result__
                                                          i
                                                          o5))
                                                        (exists ((i1 Int))
                                                          (and
                                                            (ite (= swap true)
                                                              (forall 
                                                                ((j Int))
                                                                (=>
                                                                  (and
                                                                    (<= 0 j)
                                                                    (<= j i1))
                                                                  (and
                                                                    (= 
                                                                    (to_rep
                                                                    (get
                                                                    k_bar1
                                                                    j)) 
                                                                    (to_rep
                                                                    (get
                                                                    result__
                                                                    j)))
                                                                    (= 
                                                                    (to_rep
                                                                    (get
                                                                    result__1
                                                                    j)) 
                                                                    (to_rep
                                                                    (get
                                                                    k_bar
                                                                    j))))))
                                                              (forall 
                                                                ((j Int))
                                                                (=>
                                                                  (and
                                                                    (<= 0 j)
                                                                    (<= j i1))
                                                                  (and
                                                                    (= 
                                                                    (to_rep
                                                                    (get
                                                                    k_bar1
                                                                    j)) 
                                                                    (to_rep
                                                                    (get
                                                                    k_bar
                                                                    j)))
                                                                    (= 
                                                                    (to_rep
                                                                    (get
                                                                    result__1
                                                                    j)) 
                                                                    (to_rep
                                                                    (get
                                                                    result__
                                                                    j)))))))
                                                            (and
                                                              (= (and 
                                                              (ite (and
                                                                    (and
                                                                    (and
                                                                    (has_bounds
                                                                    k_bar1
                                                                    0
                                                                    31)
                                                                    (forall 
                                                                    ((temp___5599 Int))
                                                                    (=>
                                                                    (and
                                                                    (<= 0 temp___5599)
                                                                    (<= temp___5599 31))
                                                                    (=>
                                                                    (or
                                                                    (< 31 temp___5599)
                                                                    (or
                                                                    (< temp___5599 0)
                                                                    (< i1 temp___5599)))
                                                                    (= 
                                                                    (get
                                                                    k_bar1
                                                                    temp___5599) 
                                                                    (get
                                                                    k_bar
                                                                    temp___5599))))))
                                                                    (has_bounds
                                                                    result__1
                                                                    0
                                                                    31))
                                                                    (forall 
                                                                    ((temp___5602 Int))
                                                                    (=>
                                                                    (and
                                                                    (<= 0 temp___5602)
                                                                    (<= temp___5602 31))
                                                                    (=>
                                                                    (or
                                                                    (< 31 temp___5602)
                                                                    (or
                                                                    (< temp___5602 0)
                                                                    (< i1 temp___5602)))
                                                                    (= 
                                                                    (get
                                                                    result__1
                                                                    temp___5602) 
                                                                    (get
                                                                    result__
                                                                    temp___5602))))))
                                                                true
                                                                false) 
                                                              (ite (and
                                                                    (<= 0 i1)
                                                                    (<= i1 31))
                                                                true
                                                                false)) true)
                                                              (= i1 31))))))))))))))))))))))
                    (and (= k_bar1 k_bar) (= result__1 result__)))))
              (=>
                (=>
                  (= swap true)
                  (and
                    (= (bool_eq k_bar1 0 31 result__ 0 31) true)
                    (= (bool_eq result__1 0 31 k_bar 0 31) true)))
                (=>
                  (not (= swap true))
                  (and
                    (= (bool_eq k_bar1 0 31 k_bar 0 31) true)
                    (= (bool_eq result__1 0 31 result__ 0 31) true))))))))))))

(check-sat)
